(assert (forall ((pkt_0_4_6_0  Int  )(state_group_0_state_0_5_7_0  Int  )(state_group_0_state_1_6_8_0  Int  )) (let ((_n0 state_group_0_state_0_5_7_0 ))
(let ((_n1 2 ))
(let ((_n2 (ite (=  _n0  1)  _n1   _n0  ) ))
(let ((_n3 state_group_0_state_1_6_8_0 ))
(let ((_n4 false ))
(let ((_n5 (ite (=  _n0  1)  (ite  _n4  1 0)   _n3  ) ))
(let ((_n6 3 ))
(let ((_n7 (ite (=  _n5  999)  _n6   _n2  ) ))
(let ((_n8 (ite (=  _n2  2)  _n7   _n2  ) ))
(let ((_n9 true ))
(let ((_n10 (=   _n0   (ite  _n9  1 0) ) ))
(let ((_n11 (ite (=  _n0  1)  (ite  _n4  1 0)   _n0  ) ))
(let ((_n12 (=   _n11   _n1 ) ))
(let ((_n13 (ite (=  _n0  1)  _n4   _n12  ) ))
(let ((_n14 999 ))
(let ((_n15 (not  _n13 ) ))
(let ((_n16 (or   _n15   _n10 ) ))
(let ((_n17 pkt_0_4_6_0 ))
(let ((_n18 (ite  _n16   (ite  _n4  1 0)   _n17  ) ))
(let ((_n19 (-  _n18 )))
(let ((_n20 (ite  _n16   (ite  _n4  1 0)   _n3  ) ))
(let ((_n21 (+   _n20   _n19 ) ))
(let ((_n22 (=   _n21   _n14 ) ))
(let ((_n23 (not  _n22 ) ))
(let ((_n24 (not  _n16 ) ))
(let ((_n25 (and   _n24   _n23 ) ))
(let ((_n26 (or   _n25   _n16 ) ))
(let ((_n27 (not  _n26 ) ))
(let ((_n28 (ite  _n26   (ite  _n4  1 0)   _n17  ) ))
(let ((_n29 (+   _n28   (ite  _n27  1 0) ) ))
(let ((_n30 (ite  _n26   (ite  _n4  1 0)   _n29  ) ))
(let ((_n31 (+   _n0   _n30 ) ))
(let ((_n32 (ite (=  (ite  _n25  1 0)  1)  _n0   _n31  ) ))
(let ((_n33 (ite (=  (ite  _n13  1 0)  1)  _n32   _n0  ) ))
(let ((_n34 (ite (=  _n0  1)  _n17   (ite  _n4  1 0)  ) ))
(let ((_n35 (ite (=  _n0  1)  _n3   (ite  _n4  1 0)  ) ))
(let ((_n36 (+   _n35   _n34 ) ))
(let ((_n37 (<   (ite  _n9  1 0)   _n36 ) ))
(let ((_n38 (ite (=  _n0  1)  _n37   _n4  ) ))
(let ((_n39 (not  _n10 ) ))
(let ((_n40 (or   _n38   _n39 ) ))
(let ((_n41 (not  _n40 ) ))
(let ((_n42 (+   _n0   (ite  _n41  1 0) ) ))
(let ((_n43 (and   _n38   _n10 ) ))
(let ((_n44 (+   (ite  _n43  1 0)   (ite  _n43  1 0) ) ))
(let ((_n45 (ite  _n43   _n44   (ite  _n4  1 0)  ) ))
(let ((_n46 (ite  _n43   (ite  _n4  1 0)   _n0  ) ))
(let ((_n47 (+   _n46   _n45 ) ))
(let ((_n48 (ite (=  (ite  _n38  1 0)  1)  _n47   _n42  ) ))
(let ((_n49 (ite (=  (ite  _n10  1 0)  1)  _n48   _n33  ) ))
(let ((_n50 (=   _n49   _n8 ) ))
(let ((_n52 (+   _n5   (ite  _n9  1 0) ) ))
(let ((_n53 (ite (=  _n2  2)  _n52   _n5  ) ))
(let ((_n54 (+   _n3   _n30 ) ))
(let ((_n55 (not  _n25 ) ))
(let ((_n56 (or   _n55   _n16 ) ))
(let ((_n57 (not  _n56 ) ))
(let ((_n58 (+   _n3   (ite  _n57  1 0) ) ))
(let ((_n59 (ite (=  (ite  _n25  1 0)  1)  _n58   _n54  ) ))
(let ((_n60 (ite (=  (ite  _n13  1 0)  1)  _n59   _n3  ) ))
(let ((_n61 (ite  _n40   _n3   (ite  _n4  1 0)  ) ))
(let ((_n62 (+   _n61   (ite  _n41  1 0) ) ))
(let ((_n63 (ite  _n43   _n14   (ite  _n4  1 0)  ) ))
(let ((_n64 (-  _n63 )))
(let ((_n65 1000 ))
(let ((_n66 (ite  _n43   _n65   (ite  _n4  1 0)  ) ))
(let ((_n67 (+   _n66   _n64 ) ))
(let ((_n68 (ite  _n43   _n67   (ite  _n4  1 0)  ) ))
(let ((_n69 (ite  _n43   (ite  _n4  1 0)   _n3  ) ))
(let ((_n70 (+   _n69   _n68 ) ))
(let ((_n71 (ite (=  (ite  _n38  1 0)  1)  _n70   _n62  ) ))
(let ((_n72 (ite (=  (ite  _n10  1 0)  1)  _n71   _n60  ) ))
(let ((_n73 (=   _n72   _n53 ) ))
(let ((_n75 (ite (=  _n17  0)  _n17   (ite  _n4  1 0)  ) ))
(let ((_n76 (ite (=  _n17  0)  _n75   _n17  ) ))
(let ((_n77 (=   _n76   _n17 ) ))
(implies  (and (and (>= state_group_0_state_1_6_8_0 0) (< state_group_0_state_1_6_8_0 1024 ))  (and (and (>= state_group_0_state_0_5_7_0 0) (< state_group_0_state_0_5_7_0 1024 ))  (and (>= pkt_0_4_6_0 0) (< pkt_0_4_6_0 1024 )) ) )   (and  _n50  _n73  _n77 )  )))))))))))))))))))))))))))))))))))))))))))))))))))))))))))))))))))))))))))))))
(check-sat)
(get-model)
(exit)